
Gurobi 9.1.2 (win64) logging started Mon Dec  6 14:09:44 2021

Gurobi Optimizer version 9.1.2 build v9.1.2rc0 (win64)
Thread count: 8 physical cores, 8 logical processors, using up to 8 threads
Optimize a model with 1 rows, 74 columns and 73 nonzeros
Model fingerprint: 0x1da28f0d
Variable types: 1 continuous, 73 integer (73 binary)
Coefficient statistics:
  Matrix range     [1e+00, 1e+01]
  Objective range  [1e+00, 1e+00]
  Bounds range     [3e+01, 3e+01]
  RHS range        [1e+01, 1e+01]
Presolve time: 0.00s
Presolved: 1 rows, 74 columns, 73 nonzeros
Variable types: 1 continuous, 73 integer (73 binary)

Root simplex log...

Iteration    Objective       Primal Inf.    Dual Inf.      Time
       0   -3.3823475e+01   2.511837e-01   0.000000e+00     15s
       4   -3.3823475e+01   0.000000e+00   0.000000e+00     15s

Root relaxation: objective -3.382348e+01, 4 iterations, 0.00 seconds

    Nodes    |    Current Node    |     Objective Bounds      |     Work
 Expl Unexpl |  Obj  Depth IntInf | Incumbent    BestBd   Gap | It/Node Time

     0     0  -30.52401    0    2          -  -30.52401      -     -   14s
H    0     0                       0.8542991  -30.52401  3673%     -   14s
H    0     0                       0.7342154  -30.52401  4257%     -   17s
     0     0  -20.58596    0    5    0.73422  -20.58596  2904%     -   17s
H    0     0                       0.6816995  -20.58596  3120%     -   17s
     0     0  -17.72446    0    7    0.68170  -17.72446  2700%     -   17s
     0     0  -17.72446    0    6    0.68170  -17.72446  2700%     -   17s
     0     0  -16.50089    0    6    0.68170  -16.50089  2521%     -   18s
H    0     0                       0.6809612  -16.50089  2523%     -   18s
H    0     0                       0.6809612  -16.50089  2523%     -   18s
     0     0  -15.30793    0    8    0.68096  -15.30793  2348%     -   18s
     0     0  -15.21975    0    8    0.68096  -15.21975  2335%     -   18s
H    0     0                       0.6809612  -15.21975  2335%     -   18s
     0     0  -14.59402    0    7    0.68096  -14.59402  2243%     -   18s
     0     0  -13.83213    0    8    0.68096  -13.83213  2131%     -   18s
     0     0  -13.82862    0    8    0.68096  -13.82862  2131%     -   18s
     0     0  -13.82330    0    8    0.68096  -13.82330  2130%     -   18s
     0     0  -13.01919    0    9    0.68096  -13.01919  2012%     -   18s
     0     0  -12.81645    0    9    0.68096  -12.81645  1982%     -   19s
     0     0  -12.79490    0    8    0.68096  -12.79490  1979%     -   19s
     0     0  -12.05305    0    9    0.68096  -12.05305  1870%     -   19s
     0     0  -11.51476    0    8    0.68096  -11.51476  1791%     -   19s
     0     0  -11.48762    0    8    0.68096  -11.48762  1787%     -   19s
     0     0  -11.47994    0    9    0.68096  -11.47994  1786%     -   19s
     0     0  -11.46798    0   10    0.68096  -11.46798  1784%     -   19s
     0     0  -11.42224    0    9    0.68096  -11.42224  1777%     -   19s
     0     2  -11.42224    0    9    0.68096  -11.42224  1777%     -   19s

Cutting planes:
  MIR: 10
  Lazy constraints: 16

Explored 54 nodes (318 simplex iterations) in 20.16 seconds
Thread count was 8 (of 8 available processors)

Solution count 4: 0.680961 0.681699 0.734215 0.854299 

Optimal solution found (tolerance 1.00e-04)
Best objective 6.809611948809e-01, best bound 6.809611948809e-01, gap 0.0000%

User-callback calls 322, time in user-callback 23.72 sec
